GLPSOL--GLPK LP/MIP Solver 5.0
Parameter(s) specified in the command line:
 --cpxlp --first inputs/new_tr/order/jump_3_25_tiers_input.lp -o solutions/new_tr/jump_3_25_tiers_input.lp
Reading problem data from 'inputs/new_tr/order/jump_3_25_tiers_input.lp'...
inputs/new_tr/order/jump_3_25_tiers_input.lp:2978: warning: lower bound of variable 'm_1_1' redefined
inputs/new_tr/order/jump_3_25_tiers_input.lp:2978: warning: upper bound of variable 'm_1_1' redefined
2794 rows, 1276 columns, 8264 non-zeros
1276 integer variables, 1099 of which are binary
4228 lines were read
GLPK Integer Optimizer 5.0
2794 rows, 1276 columns, 8264 non-zeros
1276 integer variables, 1099 of which are binary
Preprocessing...
80 hidden packing inequaliti(es) were detected
157 hidden covering inequaliti(es) were detected
454 constraint coefficient(s) were reduced
2300 rows, 972 columns, 6573 non-zeros
972 integer variables, 946 of which are binary
Scaling...
 A: min|aij| =  1.000e+00  max|aij| =  1.024e+04  ratio =  1.024e+04
GM: min|aij| =  4.450e-01  max|aij| =  2.247e+00  ratio =  5.049e+00
EQ: min|aij| =  1.996e-01  max|aij| =  1.000e+00  ratio =  5.010e+00
2N: min|aij| =  1.250e-01  max|aij| =  1.438e+00  ratio =  1.150e+01
Constructing initial basis...
Size of triangular part is 2073
Solving LP relaxation...
GLPK Simplex Optimizer 5.0
2300 rows, 972 columns, 6573 non-zeros
      0: obj =   2.764800000e+04 inf =   2.845e+02 (175)
    838: obj =   3.889339318e+04 inf =   3.973e-16 (0) 8
*  1354: obj =   3.172761600e+04 inf =   2.220e-16 (0) 5
OPTIMAL LP SOLUTION FOUND
Integer optimization begins...
Long-step dual simplex will be used
+  1354: mip =     not found yet >=              -inf        (1; 0)
Solution found by heuristic: 49152
+ 32489: mip =   4.915200000e+04 >=   3.203100000e+04  34.8% (63; 38)
+ 63122: mip =   4.915200000e+04 >=   3.245400000e+04  34.0% (115; 59)
+ 94178: mip =   4.915200000e+04 >=   3.276600000e+04  33.3% (168; 78)
+ 94853: >>>>>   4.812800000e+04 >=   3.276600000e+04  31.9% (178; 78)
+ 99496: >>>>>   4.710400000e+04 >=   3.280100000e+04  30.4% (184; 100)
+131124: mip =   4.710400000e+04 >=   3.306700000e+04  29.8% (257; 133)
+162184: mip =   4.710400000e+04 >=   3.332100000e+04  29.3% (311; 165)
+193359: mip =   4.710400000e+04 >=   3.352700000e+04  28.8% (342; 184)
+224683: mip =   4.710400000e+04 >=   3.394600000e+04  27.9% (381; 231)
+257831: mip =   4.710400000e+04 >=   3.428700000e+04  27.2% (453; 259)
+289651: mip =   4.710400000e+04 >=   3.474900000e+04  26.2% (516; 293)
+323957: mip =   4.710400000e+04 >=   3.481600000e+04  26.1% (675; 320)
+354361: >>>>>   4.608000000e+04 >=   3.481600000e+04  24.4% (780; 344)
Time used: 60.1 secs.  Memory used: 10.4 Mb.
+387839: mip =   4.608000000e+04 >=   3.481600000e+04  24.4% (858; 450)
+421556: mip =   4.608000000e+04 >=   3.481600000e+04  24.4% (963; 474)
+453446: mip =   4.608000000e+04 >=   3.498900000e+04  24.1% (1003; 509)
+487398: mip =   4.608000000e+04 >=   3.518800000e+04  23.6% (1087; 549)
+493692: >>>>>   4.505600000e+04 >=   3.519400000e+04  21.9% (1111; 553)
+525688: mip =   4.505600000e+04 >=   3.559500000e+04  21.0% (1064; 778)
+560987: mip =   4.505600000e+04 >=   3.584000000e+04  20.5% (1165; 854)
+595767: mip =   4.505600000e+04 >=   3.584000000e+04  20.5% (1249; 893)
+629596: mip =   4.505600000e+04 >=   3.584000000e+04  20.5% (1299; 932)
+663408: mip =   4.505600000e+04 >=   3.584000000e+04  20.5% (1368; 960)
+694714: mip =   4.505600000e+04 >=   3.588200000e+04  20.4% (1418; 1033)
+727935: mip =   4.505600000e+04 >=   3.611300000e+04  19.8% (1463; 1117)
+761553: mip =   4.505600000e+04 >=   3.638400000e+04  19.2% (1498; 1193)
Time used: 120.2 secs.  Memory used: 18.8 Mb.
+794006: mip =   4.505600000e+04 >=   3.646100000e+04  19.1% (1501; 1283)
+827449: mip =   4.505600000e+04 >=   3.665200000e+04  18.7% (1524; 1347)
+861304: mip =   4.505600000e+04 >=   3.684000000e+04  18.2% (1578; 1402)
+894525: mip =   4.505600000e+04 >=   3.686400000e+04  18.2% (1627; 1458)
+929125: mip =   4.505600000e+04 >=   3.701000000e+04  17.9% (1687; 1524)
+964488: mip =   4.505600000e+04 >=   3.707200000e+04  17.7% (1741; 1573)
+997693: mip =   4.505600000e+04 >=   3.715100000e+04  17.5% (1832; 1675)
+1033526: mip =   4.505600000e+04 >=   3.730400000e+04  17.2% (1920; 1765)
+1069660: mip =   4.505600000e+04 >=   3.748700000e+04  16.8% (2021; 1913)
+1101799: mip =   4.505600000e+04 >=   3.752700000e+04  16.7% (2095; 2003)
+1138203: mip =   4.505600000e+04 >=   3.764500000e+04  16.4% (2202; 2090)
+1174603: mip =   4.505600000e+04 >=   3.785400000e+04  16.0% (2316; 2201)
Time used: 180.2 secs.  Memory used: 27.7 Mb.
+1209553: mip =   4.505600000e+04 >=   3.802100000e+04  15.6% (2351; 2373)
+1245641: mip =   4.505600000e+04 >=   3.816000000e+04  15.3% (2447; 2488)
+1284846: mip =   4.505600000e+04 >=   3.821400000e+04  15.2% (2615; 2601)
+1320698: mip =   4.505600000e+04 >=   3.825900000e+04  15.1% (2664; 2665)
+1360958: mip =   4.505600000e+04 >=   3.830600000e+04  15.0% (2886; 2779)
+1398590: mip =   4.505600000e+04 >=   3.844300000e+04  14.7% (2980; 3018)
+1437305: mip =   4.505600000e+04 >=   3.852700000e+04  14.5% (3210; 3176)
+1474847: mip =   4.505600000e+04 >=   3.861800000e+04  14.3% (3354; 3339)
+1513680: mip =   4.505600000e+04 >=   3.870600000e+04  14.1% (3561; 3469)
+1552422: mip =   4.505600000e+04 >=   3.878400000e+04  13.9% (3818; 3706)
+1589132: mip =   4.505600000e+04 >=   3.891200000e+04  13.6% (3873; 3954)
+1623437: mip =   4.505600000e+04 >=   3.891200000e+04  13.6% (3917; 4036)
Time used: 240.3 secs.  Memory used: 39.8 Mb.
+1658162: mip =   4.505600000e+04 >=   3.891200000e+04  13.6% (3960; 4142)
+1692590: mip =   4.505600000e+04 >=   3.891200000e+04  13.6% (4038; 4281)
+1726660: mip =   4.505600000e+04 >=   3.891200000e+04  13.6% (4081; 4391)
+1761553: mip =   4.505600000e+04 >=   3.891200000e+04  13.6% (4139; 4506)
+1794964: mip =   4.505600000e+04 >=   3.894500000e+04  13.6% (4152; 4660)
+1832440: mip =   4.505600000e+04 >=   3.904100000e+04  13.4% (4282; 4841)
+1868116: mip =   4.505600000e+04 >=   3.919400000e+04  13.0% (4317; 5097)
+1903314: mip =   4.505600000e+04 >=   3.927300000e+04  12.8% (4313; 5258)
+1938614: mip =   4.505600000e+04 >=   3.935000000e+04  12.7% (4493; 5492)
+1974615: mip =   4.505600000e+04 >=   3.935100000e+04  12.7% (4820; 5599)
+2009400: mip =   4.505600000e+04 >=   3.938900000e+04  12.6% (5117; 5717)
+2044961: mip =   4.505600000e+04 >=   3.949000000e+04  12.4% (5138; 6137)
Time used: 300.3 secs.  Memory used: 48.9 Mb.
+2079745: mip =   4.505600000e+04 >=   3.983200000e+04  11.6% (5059; 6708)
+2117737: mip =   4.505600000e+04 >=   3.993600000e+04  11.4% (5187; 7118)
+2151003: mip =   4.505600000e+04 >=   3.994000000e+04  11.4% (5238; 7315)
+2187771: mip =   4.505600000e+04 >=   4.005600000e+04  11.1% (5309; 7559)
+2225106: mip =   4.505600000e+04 >=   4.009100000e+04  11.0% (5398; 7755)
+2258564: mip =   4.505600000e+04 >=   4.016500000e+04  10.9% (5352; 7963)
+2292702: mip =   4.505600000e+04 >=   4.026100000e+04  10.6% (5376; 8114)
+2325763: mip =   4.505600000e+04 >=   4.033100000e+04  10.5% (5372; 8223)
+2359383: mip =   4.505600000e+04 >=   4.047500000e+04  10.2% (5102; 8631)
+2396509: mip =   4.505600000e+04 >=   4.051200000e+04  10.1% (5125; 8761)
+2429937: mip =   4.505600000e+04 >=   4.067600000e+04   9.7% (5010; 9309)
+2465300: mip =   4.505600000e+04 >=   4.074900000e+04   9.6% (4991; 9445)
Time used: 360.3 secs.  Memory used: 52.4 Mb.
+2502091: mip =   4.505600000e+04 >=   4.096000000e+04   9.1% (5028; 10056)
+2540805: mip =   4.505600000e+04 >=   4.096000000e+04   9.1% (5242; 10289)
+2576706: mip =   4.505600000e+04 >=   4.096000000e+04   9.1% (5333; 10465)
+2612798: mip =   4.505600000e+04 >=   4.096000000e+04   9.1% (5374; 10659)
+2649508: mip =   4.505600000e+04 >=   4.110700000e+04   8.8% (5431; 10932)
+2685043: mip =   4.505600000e+04 >=   4.144200000e+04   8.0% (5648; 11627)
+2724417: mip =   4.505600000e+04 >=   4.153700000e+04   7.8% (5848; 12039)
+2763437: mip =   4.505600000e+04 >=   4.159500000e+04   7.7% (6143; 12534)
+2802522: mip =   4.505600000e+04 >=   4.159500000e+04   7.7% (6579; 12794)
+2842395: mip =   4.505600000e+04 >=   4.159500000e+04   7.7% (6997; 13080)
+2884501: mip =   4.505600000e+04 >=   4.159500000e+04   7.7% (7430; 13399)
+2925705: mip =   4.505600000e+04 >=   4.159500000e+04   7.7% (7896; 13692)
Time used: 420.3 secs.  Memory used: 68.7 Mb.
+2967484: mip =   4.505600000e+04 >=   4.159500000e+04   7.7% (8301; 13992)
+3008975: mip =   4.505600000e+04 >=   4.159500000e+04   7.7% (8692; 14289)
+3049939: mip =   4.505600000e+04 >=   4.159500000e+04   7.7% (9006; 14627)
+3089132: mip =   4.505600000e+04 >=   4.159500000e+04   7.7% (9359; 14969)
+3128905: mip =   4.505600000e+04 >=   4.159500000e+04   7.7% (9712; 15283)
+3167677: mip =   4.505600000e+04 >=   4.159500000e+04   7.7% (10056; 15607)
+3205022: mip =   4.505600000e+04 >=   4.159500000e+04   7.7% (10416; 15961)
+3244689: mip =   4.505600000e+04 >=   4.159500000e+04   7.7% (10759; 16268)
+3281815: mip =   4.505600000e+04 >=   4.159500000e+04   7.7% (11135; 16580)
+3319960: mip =   4.505600000e+04 >=   4.159500000e+04   7.7% (11472; 16896)
+3358295: mip =   4.505600000e+04 >=   4.159500000e+04   7.7% (11889; 17153)
+3395276: mip =   4.505600000e+04 >=   4.159500000e+04   7.7% (12299; 17432)
Time used: 480.3 secs.  Memory used: 91.5 Mb.
+3424668: mip =   4.505600000e+04 >=   4.160800000e+04   7.7% (12266; 17980)
+3452794: mip =   4.505600000e+04 >=   4.161400000e+04   7.6% (12023; 18775)
+3473681: mip =   4.505600000e+04 >=   4.164200000e+04   7.6% (11639; 19643)
+3487649: mip =   4.505600000e+04 >=   4.169000000e+04   7.5% (10783; 20643)
+3495993: mip =   4.505600000e+04 >=   4.173200000e+04   7.4% (9603; 22919)
+3521170: mip =   4.505600000e+04 >=   4.198400000e+04   6.8% (9168; 24656)
+3550877: mip =   4.505600000e+04 >=   4.198400000e+04   6.8% (9166; 25474)
+3584129: mip =   4.505600000e+04 >=   4.198400000e+04   6.8% (9130; 26301)
+3614366: mip =   4.505600000e+04 >=   4.198400000e+04   6.8% (8989; 27379)
+3647826: mip =   4.505600000e+04 >=   4.198400000e+04   6.8% (9037; 28046)
+3684075: mip =   4.505600000e+04 >=   4.198400000e+04   6.8% (9170; 28203)
+3719769: mip =   4.505600000e+04 >=   4.198400000e+04   6.8% (9249; 28351)
Time used: 540.4 secs.  Memory used: 94.6 Mb.
+3752050: mip =   4.505600000e+04 >=   4.201700000e+04   6.7% (9250; 28670)
+3778689: mip =   4.505600000e+04 >=   4.219800000e+04   6.3% (8749; 30728)
+3816572: mip =   4.505600000e+04 >=   4.229900000e+04   6.1% (8759; 31294)
+3855592: mip =   4.505600000e+04 >=   4.245700000e+04   5.8% (8930; 31712)
+3893453: mip =   4.505600000e+04 >=   4.245700000e+04   5.8% (9429; 32075)
+3929579: mip =   4.505600000e+04 >=   4.245700000e+04   5.8% (9870; 32486)
+3963044: mip =   4.505600000e+04 >=   4.245700000e+04   5.8% (10245; 32955)
+3997152: mip =   4.505600000e+04 >=   4.245700000e+04   5.8% (10662; 33382)
+4034200: mip =   4.505600000e+04 >=   4.245700000e+04   5.8% (11055; 33759)
+4067028: mip =   4.505600000e+04 >=   4.245700000e+04   5.8% (11455; 34181)
+4096997: mip =   4.505600000e+04 >=   4.245700000e+04   5.8% (11972; 34596)
+4131386: mip =   4.505600000e+04 >=   4.245700000e+04   5.8% (12405; 34950)
Time used: 600.4 secs.  Memory used: 109.7 Mb.
+4167126: mip =   4.505600000e+04 >=   4.245700000e+04   5.8% (12842; 35264)
+4203247: mip =   4.505600000e+04 >=   4.245700000e+04   5.8% (13226; 35580)
+4233826: mip =   4.505600000e+04 >=   4.246500000e+04   5.8% (13574; 35987)
+4258524: mip =   4.505600000e+04 >=   4.251700000e+04   5.6% (13600; 36824)
+4288146: mip =   4.505600000e+04 >=   4.252900000e+04   5.6% (13769; 37242)
+4313791: mip =   4.505600000e+04 >=   4.256400000e+04   5.5% (13766; 37774)
+4343489: mip =   4.505600000e+04 >=   4.256400000e+04   5.5% (13750; 38192)
+4372721: mip =   4.505600000e+04 >=   4.256400000e+04   5.5% (13917; 38593)
+4402900: mip =   4.505600000e+04 >=   4.256400000e+04   5.5% (14301; 38950)
+4431721: mip =   4.505600000e+04 >=   4.256400000e+04   5.5% (14735; 39316)
+4440090: mip =   4.505600000e+04 >=   4.256800000e+04   5.5% (14147; 40125)
+4455679: mip =   4.505600000e+04 >=   4.261300000e+04   5.4% (13606; 40923)
Time used: 660.4 secs.  Memory used: 125.1 Mb.
+4486899: mip =   4.505600000e+04 >=   4.268600000e+04   5.3% (13938; 41436)
+4519266: mip =   4.505600000e+04 >=   4.268600000e+04   5.3% (14314; 41787)
+4551067: mip =   4.505600000e+04 >=   4.268600000e+04   5.3% (14689; 42118)
+4585093: mip =   4.505600000e+04 >=   4.268600000e+04   5.3% (15100; 42403)
+4596803: mip =   4.505600000e+04 >=   4.272400000e+04   5.2% (14554; 45413)
+4620856: mip =   4.505600000e+04 >=   4.280800000e+04   5.0% (14559; 45961)
+4641186: mip =   4.505600000e+04 >=   4.294800000e+04   4.7% (14260; 47045)
+4663850: mip =   4.505600000e+04 >=   4.300800000e+04   4.5% (14065; 47970)
+4686405: mip =   4.505600000e+04 >=   4.300800000e+04   4.5% (14036; 48781)
+4707036: mip =   4.505600000e+04 >=   4.300800000e+04   4.5% (13933; 49817)
+4727227: mip =   4.505600000e+04 >=   4.300800000e+04   4.5% (13749; 50945)
+4749863: mip =   4.505600000e+04 >=   4.300800000e+04   4.5% (13593; 52008)
Time used: 720.4 secs.  Memory used: 131.8 Mb.
+4780912: mip =   4.505600000e+04 >=   4.300800000e+04   4.5% (13638; 52460)
+4812361: mip =   4.505600000e+04 >=   4.300800000e+04   4.5% (13658; 52889)
+4846684: mip =   4.505600000e+04 >=   4.300800000e+04   4.5% (13702; 53210)
+4881524: mip =   4.505600000e+04 >=   4.300800000e+04   4.5% (13751; 53501)
+4913944: mip =   4.505600000e+04 >=   4.300800000e+04   4.5% (13770; 53892)
+4948650: mip =   4.505600000e+04 >=   4.300800000e+04   4.5% (13828; 54189)
+4980456: mip =   4.505600000e+04 >=   4.300800000e+04   4.5% (13871; 54571)
+5012411: mip =   4.505600000e+04 >=   4.300800000e+04   4.5% (13913; 54955)
+5043978: mip =   4.505600000e+04 >=   4.300800000e+04   4.5% (13944; 55375)
+5076848: mip =   4.505600000e+04 >=   4.300800000e+04   4.5% (13995; 55721)
+5106305: mip =   4.505600000e+04 >=   4.300800000e+04   4.5% (14007; 56179)
+5132365: mip =   4.505600000e+04 >=   4.300800000e+04   4.5% (14064; 56818)
Time used: 780.4 secs.  Memory used: 132.6 Mb.
+5162178: mip =   4.505600000e+04 >=   4.300800000e+04   4.5% (14074; 57254)
+5191584: mip =   4.505600000e+04 >=   4.300800000e+04   4.5% (14123; 57697)
+5220625: mip =   4.505600000e+04 >=   4.300800000e+04   4.5% (14184; 58105)
+5248941: mip =   4.505600000e+04 >=   4.300800000e+04   4.5% (14224; 58496)
+5276301: mip =   4.505600000e+04 >=   4.300800000e+04   4.5% (14295; 58945)
+5303679: mip =   4.505600000e+04 >=   4.300800000e+04   4.5% (14314; 59465)
+5332523: mip =   4.505600000e+04 >=   4.300800000e+04   4.5% (14379; 59842)
+5360944: mip =   4.505600000e+04 >=   4.300800000e+04   4.5% (14427; 60268)
+5390010: mip =   4.505600000e+04 >=   4.300800000e+04   4.5% (14496; 60640)
+5419499: mip =   4.505600000e+04 >=   4.300800000e+04   4.5% (14532; 60980)
+5448692: mip =   4.505600000e+04 >=   4.300800000e+04   4.5% (14562; 61364)
+5476638: mip =   4.505600000e+04 >=   4.300800000e+04   4.5% (14620; 61840)
Time used: 840.4 secs.  Memory used: 135.7 Mb.
+5502472: mip =   4.505600000e+04 >=   4.300800000e+04   4.5% (14639; 62411)
+5530159: mip =   4.505600000e+04 >=   4.300800000e+04   4.5% (14686; 62878)
+5560716: mip =   4.505600000e+04 >=   4.300800000e+04   4.5% (14771; 63171)
+5589057: mip =   4.505600000e+04 >=   4.300800000e+04   4.5% (14814; 63572)
+5617242: mip =   4.505600000e+04 >=   4.300800000e+04   4.5% (14841; 63942)
+5645885: mip =   4.505600000e+04 >=   4.300800000e+04   4.5% (14890; 64310)
+5673913: mip =   4.505600000e+04 >=   4.300800000e+04   4.5% (14942; 64712)
+5701692: mip =   4.505600000e+04 >=   4.300800000e+04   4.5% (15006; 65049)
+5729744: mip =   4.505600000e+04 >=   4.300800000e+04   4.5% (15050; 65363)
+5757832: mip =   4.505600000e+04 >=   4.300800000e+04   4.5% (15109; 65730)
+5786218: mip =   4.505600000e+04 >=   4.300800000e+04   4.5% (15159; 66036)
+5814302: mip =   4.505600000e+04 >=   4.300800000e+04   4.5% (15172; 66400)
Time used: 900.4 secs.  Memory used: 141.1 Mb.
+5842740: mip =   4.505600000e+04 >=   4.300800000e+04   4.5% (15215; 66746)
+5870740: mip =   4.505600000e+04 >=   4.300800000e+04   4.5% (15271; 67090)
+5898250: mip =   4.505600000e+04 >=   4.300800000e+04   4.5% (15286; 67500)
+5926342: mip =   4.505600000e+04 >=   4.300800000e+04   4.5% (15352; 67836)
+5953908: mip =   4.505600000e+04 >=   4.300800000e+04   4.5% (15368; 68205)
+5981344: mip =   4.505600000e+04 >=   4.300800000e+04   4.5% (15384; 68571)
+6009107: mip =   4.505600000e+04 >=   4.300800000e+04   4.5% (15426; 68906)
+6035049: mip =   4.505600000e+04 >=   4.300800000e+04   4.5% (15425; 69285)
+6061632: mip =   4.505600000e+04 >=   4.300800000e+04   4.5% (15465; 69632)
+6089301: mip =   4.505600000e+04 >=   4.300800000e+04   4.5% (15502; 69899)
+6117224: mip =   4.505600000e+04 >=   4.300800000e+04   4.5% (15562; 70230)
+6143342: mip =   4.505600000e+04 >=   4.300800000e+04   4.5% (15581; 70674)
Time used: 960.4 secs.  Memory used: 145.7 Mb.
+6171345: mip =   4.505600000e+04 >=   4.300800000e+04   4.5% (15588; 70953)
+6197454: mip =   4.505600000e+04 >=   4.300800000e+04   4.5% (15616; 71268)
+6223901: mip =   4.505600000e+04 >=   4.300800000e+04   4.5% (15651; 71577)
+6251694: mip =   4.505600000e+04 >=   4.300800000e+04   4.5% (15714; 71910)
+6278859: mip =   4.505600000e+04 >=   4.300800000e+04   4.5% (15777; 72271)
+6306085: mip =   4.505600000e+04 >=   4.300800000e+04   4.5% (15842; 72602)
+6331298: mip =   4.505600000e+04 >=   4.300800000e+04   4.5% (15875; 73046)
+6358891: mip =   4.505600000e+04 >=   4.300800000e+04   4.5% (15950; 73385)
+6385160: mip =   4.505600000e+04 >=   4.300800000e+04   4.5% (15991; 73754)
+6412835: mip =   4.505600000e+04 >=   4.300800000e+04   4.5% (16035; 74092)
+6428750: mip =   4.505600000e+04 >=   4.310800000e+04   4.3% (15704; 75078)
+6447494: mip =   4.505600000e+04 >=   4.314500000e+04   4.2% (15489; 75758)
Time used: 1020.4 secs.  Memory used: 150.0 Mb.
+6473528: mip =   4.505600000e+04 >=   4.317200000e+04   4.2% (15208; 76203)
+6503240: mip =   4.505600000e+04 >=   4.321300000e+04   4.1% (15206; 76749)
+6531183: mip =   4.505600000e+04 >=   4.321300000e+04   4.1% (15513; 77124)
+6561329: mip =   4.505600000e+04 >=   4.321300000e+04   4.1% (15837; 77461)
+6583248: mip =   4.505600000e+04 >=   4.326700000e+04   4.0% (15956; 78293)
+6598102: mip =   4.505600000e+04 >=   4.330800000e+04   3.9% (15810; 79366)
+6618121: mip =   4.505600000e+04 >=   4.331100000e+04   3.9% (15822; 80306)
+6644213: mip =   4.505600000e+04 >=   4.331100000e+04   3.9% (16136; 80689)
+6672714: mip =   4.505600000e+04 >=   4.333300000e+04   3.8% (16198; 81093)
+6694634: mip =   4.505600000e+04 >=   4.336600000e+04   3.8% (16048; 81890)
+6718518: mip =   4.505600000e+04 >=   4.339500000e+04   3.7% (16230; 82428)
+6750148: mip =   4.505600000e+04 >=   4.341800000e+04   3.6% (16515; 82738)
Time used: 1080.4 secs.  Memory used: 158.6 Mb.
+6778865: mip =   4.505600000e+04 >=   4.344000000e+04   3.6% (16876; 83073)
+6791374: mip =   4.505600000e+04 >=   4.350500000e+04   3.4% (16831; 84110)
+6793117: mip =   4.505600000e+04 >=   4.352000000e+04   3.4% (16066; 86533)
+6793562: mip =   4.505600000e+04 >=   4.352000000e+04   3.4% (15209; 89317)
+6795189: mip =   4.505600000e+04 >=   4.352000000e+04   3.4% (14410; 92324)
+6805242: mip =   4.505600000e+04 >=   4.352000000e+04   3.4% (13885; 94695)
+6827140: mip =   4.505600000e+04 >=   4.358500000e+04   3.3% (13783; 95734)
+6857507: mip =   4.505600000e+04 >=   4.358500000e+04   3.3% (14236; 96069)
+6888728: mip =   4.505600000e+04 >=   4.358500000e+04   3.3% (14773; 96369)
+6920071: mip =   4.505600000e+04 >=   4.358500000e+04   3.3% (15288; 96665)
+6949590: mip =   4.505600000e+04 >=   4.358800000e+04   3.3% (15740; 97008)
+6950219: mip =   4.505600000e+04 >=   4.359500000e+04   3.2% (14968; 100387)
Time used: 1140.4 secs.  Memory used: 161.2 Mb.
+6956962: mip =   4.505600000e+04 >=   4.365500000e+04   3.1% (14259; 102467)
+6964267: mip =   4.505600000e+04 >=   4.369800000e+04   3.0% (13591; 105420)
+6971373: mip =   4.505600000e+04 >=   4.371200000e+04   3.0% (12784; 109448)
+6980569: mip =   4.505600000e+04 >=   4.378300000e+04   2.8% (12059; 112801)
+7006613: mip =   4.505600000e+04 >=   4.380300000e+04   2.8% (12015; 113616)
+7025167: mip =   4.505600000e+04 >=   4.382800000e+04   2.7% (12168; 114325)
+7037956: mip =   4.505600000e+04 >=   4.384100000e+04   2.7% (12096; 115727)
+7048833: mip =   4.505600000e+04 >=   4.385300000e+04   2.7% (11982; 117856)
+7068829: mip =   4.505600000e+04 >=   4.387100000e+04   2.6% (11824; 118937)
+7095526: mip =   4.505600000e+04 >=   4.387100000e+04   2.6% (12207; 119371)
+7122374: mip =   4.505600000e+04 >=   4.387100000e+04   2.6% (12602; 119807)
+7147611: mip =   4.505600000e+04 >=   4.387100000e+04   2.6% (12950; 120280)
Time used: 1200.4 secs.  Memory used: 161.2 Mb.
+7174615: mip =   4.505600000e+04 >=   4.387100000e+04   2.6% (13221; 120698)
+7199080: mip =   4.505600000e+04 >=   4.387100000e+04   2.6% (13554; 121149)
+7223166: mip =   4.505600000e+04 >=   4.387100000e+04   2.6% (13879; 121630)
+7246208: mip =   4.505600000e+04 >=   4.387100000e+04   2.6% (14131; 122141)
+7269903: mip =   4.505600000e+04 >=   4.387100000e+04   2.6% (14427; 122619)
+7292163: mip =   4.505600000e+04 >=   4.387100000e+04   2.6% (14665; 123197)
+7316234: mip =   4.505600000e+04 >=   4.387100000e+04   2.6% (15019; 123607)
+7339473: mip =   4.505600000e+04 >=   4.387100000e+04   2.6% (15318; 124053)
+7365945: mip =   4.505600000e+04 >=   4.387100000e+04   2.6% (15645; 124449)
+7388145: mip =   4.505600000e+04 >=   4.387100000e+04   2.6% (15929; 124944)
+7411153: mip =   4.505600000e+04 >=   4.387100000e+04   2.6% (16171; 125373)
Time used: 1260.4 secs.  Memory used: 161.2 Mb.
+7435182: mip =   4.505600000e+04 >=   4.387100000e+04   2.6% (16483; 125773)
+7456872: mip =   4.505600000e+04 >=   4.387100000e+04   2.6% (16679; 126304)
+7480151: mip =   4.505600000e+04 >=   4.387100000e+04   2.6% (16908; 126757)
+7501523: mip =   4.505600000e+04 >=   4.387800000e+04   2.6% (17095; 127207)
+7526408: mip =   4.505600000e+04 >=   4.387800000e+04   2.6% (17332; 127570)
+7550023: mip =   4.505600000e+04 >=   4.387800000e+04   2.6% (17601; 127954)
+7575231: mip =   4.505600000e+04 >=   4.387800000e+04   2.6% (17897; 128327)
+7600125: mip =   4.505600000e+04 >=   4.387800000e+04   2.6% (18183; 128683)
+7625334: mip =   4.505600000e+04 >=   4.387800000e+04   2.6% (18470; 129019)
+7649392: mip =   4.505600000e+04 >=   4.387800000e+04   2.6% (18762; 129370)
+7670731: mip =   4.505600000e+04 >=   4.387800000e+04   2.6% (18984; 129775)
+7694802: mip =   4.505600000e+04 >=   4.387800000e+04   2.6% (19178; 130145)
Time used: 1320.4 secs.  Memory used: 166.1 Mb.
+7718387: mip =   4.505600000e+04 >=   4.387800000e+04   2.6% (19441; 130512)
+7741773: mip =   4.505600000e+04 >=   4.387800000e+04   2.6% (19664; 130877)
+7764486: mip =   4.505600000e+04 >=   4.387800000e+04   2.6% (19995; 131219)
+7791411: mip =   4.505600000e+04 >=   4.387800000e+04   2.6% (20262; 131521)
+7816215: mip =   4.505600000e+04 >=   4.387800000e+04   2.6% (20491; 131852)
+7843270: mip =   4.505600000e+04 >=   4.387800000e+04   2.6% (20769; 132138)
+7867182: mip =   4.505600000e+04 >=   4.387800000e+04   2.6% (21049; 132494)
+7891927: mip =   4.505600000e+04 >=   4.387800000e+04   2.6% (21326; 132824)
+7916098: mip =   4.505600000e+04 >=   4.387800000e+04   2.6% (21592; 133168)
+7942910: mip =   4.505600000e+04 >=   4.387800000e+04   2.6% (21889; 133450)
+7965403: mip =   4.505600000e+04 >=   4.387800000e+04   2.6% (22172; 133776)
+7988746: mip =   4.505600000e+04 >=   4.387800000e+04   2.6% (22420; 134175)
Time used: 1380.4 secs.  Memory used: 181.5 Mb.
+8010802: mip =   4.505600000e+04 >=   4.387800000e+04   2.6% (22727; 134486)
+8035497: mip =   4.505600000e+04 >=   4.387800000e+04   2.6% (23046; 134763)
+8062009: mip =   4.505600000e+04 >=   4.387800000e+04   2.6% (23331; 135061)
+8087808: mip =   4.505600000e+04 >=   4.387800000e+04   2.6% (23568; 135337)
+8108138: mip =   4.505600000e+04 >=   4.387800000e+04   2.6% (23734; 135660)
+8127100: mip =   4.505600000e+04 >=   4.387800000e+04   2.6% (23865; 136000)
+8148668: mip =   4.505600000e+04 >=   4.387800000e+04   2.6% (24180; 136296)
+8172231: mip =   4.505600000e+04 >=   4.387800000e+04   2.6% (24461; 136579)
+8196627: mip =   4.505600000e+04 >=   4.387800000e+04   2.6% (24712; 136864)
+8222671: mip =   4.505600000e+04 >=   4.387800000e+04   2.6% (25051; 137121)
+8243383: mip =   4.505600000e+04 >=   4.387800000e+04   2.6% (25289; 137427)
+8264765: mip =   4.505600000e+04 >=   4.387800000e+04   2.6% (25544; 137716)
Time used: 1440.4 secs.  Memory used: 199.9 Mb.
+8288338: mip =   4.505600000e+04 >=   4.387800000e+04   2.6% (25777; 137996)
+8310995: mip =   4.505600000e+04 >=   4.387800000e+04   2.6% (26090; 138277)
+8335158: mip =   4.505600000e+04 >=   4.387800000e+04   2.6% (26369; 138543)
+8357144: mip =   4.505600000e+04 >=   4.387800000e+04   2.6% (26616; 138828)
+8378743: mip =   4.505600000e+04 >=   4.387800000e+04   2.6% (26848; 139126)
+8400168: mip =   4.505600000e+04 >=   4.387800000e+04   2.6% (27025; 139417)
+8421990: mip =   4.505600000e+04 >=   4.387800000e+04   2.6% (27244; 139697)
+8442898: mip =   4.505600000e+04 >=   4.387800000e+04   2.6% (27476; 140016)
+8463680: mip =   4.505600000e+04 >=   4.387800000e+04   2.6% (27700; 140312)
+8484268: mip =   4.505600000e+04 >=   4.387800000e+04   2.6% (27856; 140618)
+8505739: mip =   4.505600000e+04 >=   4.387800000e+04   2.6% (28066; 140891)
+8527201: mip =   4.505600000e+04 >=   4.387800000e+04   2.6% (28332; 141165)
Time used: 1500.4 secs.  Memory used: 215.1 Mb.
+8549965: mip =   4.505600000e+04 >=   4.387800000e+04   2.6% (28564; 141432)
+8572521: mip =   4.505600000e+04 >=   4.387800000e+04   2.6% (28809; 141719)
+8592720: mip =   4.505600000e+04 >=   4.387800000e+04   2.6% (29026; 142065)
+8614315: mip =   4.505600000e+04 >=   4.387800000e+04   2.6% (29248; 142330)
+8636171: mip =   4.505600000e+04 >=   4.387800000e+04   2.6% (29535; 142592)
+8658578: mip =   4.505600000e+04 >=   4.387800000e+04   2.6% (29781; 142854)
+8679694: mip =   4.505600000e+04 >=   4.387800000e+04   2.6% (29992; 143121)
+8702706: mip =   4.505600000e+04 >=   4.387800000e+04   2.6% (30266; 143371)
+8725248: mip =   4.505600000e+04 >=   4.387800000e+04   2.6% (30536; 143636)
+8744282: mip =   4.505600000e+04 >=   4.387800000e+04   2.6% (30742; 143909)
+8762178: mip =   4.505600000e+04 >=   4.387800000e+04   2.6% (30895; 144194)
+8782675: mip =   4.505600000e+04 >=   4.387800000e+04   2.6% (31058; 144485)
Time used: 1560.4 secs.  Memory used: 230.0 Mb.
+8805558: mip =   4.505600000e+04 >=   4.387800000e+04   2.6% (31284; 144726)
+8826488: mip =   4.505600000e+04 >=   4.387800000e+04   2.6% (31411; 144982)
+8846808: mip =   4.505600000e+04 >=   4.387800000e+04   2.6% (31651; 145243)
+8869765: mip =   4.505600000e+04 >=   4.387800000e+04   2.6% (31998; 145472)
+8888327: mip =   4.505600000e+04 >=   4.387800000e+04   2.6% (32142; 145752)
+8907871: mip =   4.505600000e+04 >=   4.387800000e+04   2.6% (32329; 146015)
+8926369: mip =   4.505600000e+04 >=   4.387800000e+04   2.6% (32520; 146294)
+8946598: mip =   4.505600000e+04 >=   4.387800000e+04   2.6% (32778; 146547)
+8970843: mip =   4.505600000e+04 >=   4.387800000e+04   2.6% (33021; 146771)
+8990852: mip =   4.505600000e+04 >=   4.387800000e+04   2.6% (33225; 147024)
+9012606: mip =   4.505600000e+04 >=   4.387800000e+04   2.6% (33516; 147260)
+9035189: mip =   4.505600000e+04 >=   4.387800000e+04   2.6% (33767; 147495)
Time used: 1620.4 secs.  Memory used: 245.1 Mb.
+9056722: mip =   4.505600000e+04 >=   4.387800000e+04   2.6% (34040; 147731)
+9078409: mip =   4.505600000e+04 >=   4.387800000e+04   2.6% (34295; 147964)
+9101986: mip =   4.505600000e+04 >=   4.387800000e+04   2.6% (34559; 148181)
+9121807: mip =   4.505600000e+04 >=   4.387800000e+04   2.6% (34863; 148414)
+9142399: mip =   4.505600000e+04 >=   4.387800000e+04   2.6% (35229; 148638)
+9162589: mip =   4.505600000e+04 >=   4.387800000e+04   2.6% (35529; 148866)
+9186218: mip =   4.505600000e+04 >=   4.387800000e+04   2.6% (35801; 149073)
+9207261: mip =   4.505600000e+04 >=   4.387800000e+04   2.6% (36083; 149297)
+9224463: mip =   4.505600000e+04 >=   4.388500000e+04   2.6% (36221; 149547)
+9237012: mip =   4.505600000e+04 >=   4.388500000e+04   2.6% (36413; 149826)
+9250270: mip =   4.505600000e+04 >=   4.388500000e+04   2.6% (36628; 150100)
+9266873: mip =   4.505600000e+04 >=   4.388700000e+04   2.6% (36832; 150362)
Time used: 1680.4 secs.  Memory used: 262.4 Mb.
+9282319: mip =   4.505600000e+04 >=   4.388700000e+04   2.6% (37131; 150611)
+9298472: mip =   4.505600000e+04 >=   4.388700000e+04   2.6% (37439; 150856)
+9311614: mip =   4.505600000e+04 >=   4.388700000e+04   2.6% (37718; 151119)
+9325946: mip =   4.505600000e+04 >=   4.388700000e+04   2.6% (38028; 151368)
+9341015: mip =   4.505600000e+04 >=   4.388700000e+04   2.6% (38358; 151612)
+9356388: mip =   4.505600000e+04 >=   4.388700000e+04   2.6% (38660; 151859)
+9373743: mip =   4.505600000e+04 >=   4.388700000e+04   2.6% (39081; 152075)
+9389350: mip =   4.505600000e+04 >=   4.388700000e+04   2.6% (39449; 152309)
+9404764: mip =   4.505600000e+04 >=   4.388700000e+04   2.6% (39778; 152551)
+9418775: mip =   4.505600000e+04 >=   4.388700000e+04   2.6% (40117; 152794)
+9433250: mip =   4.505600000e+04 >=   4.388700000e+04   2.6% (40469; 153031)
+9447671: mip =   4.505600000e+04 >=   4.388700000e+04   2.6% (40717; 153279)
Time used: 1740.4 secs.  Memory used: 279.7 Mb.
+9462208: mip =   4.505600000e+04 >=   4.388700000e+04   2.6% (41030; 153520)
+9476692: mip =   4.505600000e+04 >=   4.388700000e+04   2.6% (41305; 153751)
+9490322: mip =   4.505600000e+04 >=   4.389200000e+04   2.6% (41497; 154002)
+9500686: mip =   4.505600000e+04 >=   4.389400000e+04   2.6% (41388; 154327)
+9515486: mip =   4.505600000e+04 >=   4.389400000e+04   2.6% (41338; 154592)
+9529551: mip =   4.505600000e+04 >=   4.389400000e+04   2.6% (41280; 154866)
+9542126: mip =   4.505600000e+04 >=   4.389400000e+04   2.6% (41185; 155143)
+9556811: mip =   4.505600000e+04 >=   4.389400000e+04   2.6% (41125; 155408)
+9569597: mip =   4.505600000e+04 >=   4.389400000e+04   2.6% (41072; 155680)
+9582195: mip =   4.505600000e+04 >=   4.389400000e+04   2.6% (41046; 155981)
+9596794: mip =   4.505600000e+04 >=   4.389400000e+04   2.6% (41043; 156271)
+9610527: mip =   4.505600000e+04 >=   4.389400000e+04   2.6% (41064; 156551)
